instances/project.7.dat
n = 7;


p =
  [
    [56  0   0   43  0   1   0  ]
    [0   20  0   80  0   0   0  ]
    [9   0   22  0   0   69  0  ]
    [83  8   0   0   0   0   9  ]
    [0   7   0   0   0   88  5  ]
    [0   0   67  0   33  0   0  ]
    [0   0   0   2   69  0   29 ]
  ];
