instances/project.7.sol
OBJECTIVE: 253

Slot 1
1 white, 10 black
9 white, 2 black
7 white, 3 black
4 white, 12 black
11 white, 5 black
6 white, 15 black
14 white, 8 black

Slot 2
7 white, 1 black
4 white, 2 black
5 white, 3 black
6 white, 14 black
10 white, 8 black
13 white, 9 black
12 white, 11 black

Slot 3
1 white, 13 black
2 white, 10 black
6 white, 3 black
8 white, 4 black
5 white, 14 black
12 white, 7 black
15 white, 9 black

Slot 4
1 white, 11 black
7 white, 2 black
4 white, 3 black
5 white, 13 black
9 white, 6 black
14 white, 10 black
15 white, 12 black

Slot 5
3 white, 1 black
2 white, 12 black
7 white, 5 black
11 white, 6 black
15 white, 8 black
10 white, 9 black
14 white, 13 black

Slot 6
6 white, 2 black
3 white, 14 black
9 white, 4 black
12 white, 5 black
7 white, 15 black
11 white, 8 black
13 white, 10 black

Slot 7
5 white, 1 black
3 white, 2 black
11 white, 4 black
8 white, 6 black
13 white, 7 black
12 white, 10 black
15 white, 14 black

Slot 8
1 white, 9 black
8 white, 2 black
3 white, 13 black
10 white, 4 black
12 white, 6 black
14 white, 7 black
15 white, 11 black

Slot 9
4 white, 1 black
2 white, 15 black
3 white, 12 black
9 white, 5 black
13 white, 6 black
8 white, 7 black
11 white, 10 black

Slot 10
6 white, 1 black
2 white, 13 black
4 white, 14 black
5 white, 15 black
10 white, 7 black
12 white, 8 black
11 white, 9 black

Slot 11
1 white, 14 black
8 white, 3 black
6 white, 4 black
10 white, 5 black
11 white, 7 black
12 white, 9 black
15 white, 13 black

Slot 12
1 white, 15 black
5 white, 2 black
3 white, 11 black
4 white, 13 black
7 white, 6 black
9 white, 8 black
14 white, 12 black

Slot 13
8 white, 1 black
2 white, 11 black
10 white, 3 black
4 white, 15 black
6 white, 5 black
14 white, 9 black
13 white, 12 black

Slot 14
2 white, 1 black
3 white, 15 black
5 white, 4 black
10 white, 6 black
9 white, 7 black
13 white, 8 black
14 white, 11 black

Slot 15
1 white, 12 black
2 white, 14 black
9 white, 3 black
7 white, 4 black
8 white, 5 black
15 white, 10 black
13 white, 11 black




